50
    71    81    45    81    16    81    69    60    20    75    76    43    29    62    19    97    28     2    42     4    45    24    79    61    46    19    56    82    39    47    89    97    73    32    83    49    38    64    36    98    62    99    35    22    17    58    59    11    12    27
     2     2     3     4     8     2     7     3     7     3     7     4     1     7     8     2     3     7     1     3    10     3     5     1     9     6     4     2     2     8     2     9     1     8     9     7     1     6     2     8     9     4     5     8     4     9    10     8     8     1
   772   636   727   117     7   354   596   860   462   949   278  1014   766   779   731   103   182   233   172   815   688   804   506   651   349   572   962   473   524   448   425   242   259   687   288   399   420   979   641   679   138    38    49   462   938   815   956   662   115   868
